language ESSENCE' 1.0

letting jobs = 102
letting horizon = 787
letting resourcesRenew = 2
letting resourcesNonrenew = 2
letting resourceLimits = [16, 19, 158, 162]
letting successors = [[2, 3, 4, 5, 6, 8, 9, 12, 15], [32, 24, 22, 20, 14, 13, 11], [25, 19, 13, 10, 7], [32, 30, 25, 24, 23, 20, 17], [32, 28, 21, 18, 16], [32, 24, 22, 13], [38, 32, 30, 28, 24, 22, 21, 18], [30, 24, 23, 22, 21, 18], [26, 24, 13], [38, 32, 30, 24, 22, 18], [28, 23, 17], [36, 34, 33, 32, 30, 29, 28, 26, 21], [38, 36, 30, 28, 21, 18], [36, 33, 28, 26, 25, 21], [38, 36, 26, 21, 18], [38, 30, 24, 22], [34, 33, 29, 26, 21], [41, 37, 34, 33, 29, 27], [40, 37, 35, 28, 27], [35, 28, 27, 26], [44, 41, 40, 37, 35, 27], [54, 36, 35, 33, 26], [38, 37, 36, 35, 26], [54, 50, 44, 43, 41, 40, 37, 31], [49, 45, 38, 29], [50, 45, 43, 41, 40, 31], [54, 52, 50, 45, 43, 31], [54, 52, 44, 43, 41, 31], [54, 43, 40, 31], [52, 49, 43, 31], [63, 53, 51, 48, 47, 46, 42, 39], [63, 53, 51, 48, 47, 46, 42, 39], [63, 62, 61, 53, 51, 46, 42], [63, 61, 55, 51, 49, 42], [61, 56, 55, 53, 52, 49, 46], [63, 58, 56, 53, 51, 49], [63, 61, 59, 55, 53, 46], [65, 63, 61, 59, 58, 57, 55, 52], [62, 61, 59, 58, 57, 55], [63, 61, 58, 53, 52], [65, 62, 61, 58, 53], [65, 60, 59, 58, 57, 56], [61, 60, 57, 51], [71, 67, 63, 60, 59, 57], [79, 61, 60, 58, 57], [79, 66, 65, 64, 60, 58], [79, 71, 67, 61, 60, 57], [79, 75, 66, 64, 61, 58], [79, 67, 66, 64, 62, 60], [66, 63, 61, 60, 58], [74, 67, 65, 64, 59], [79, 71, 67, 66, 60], [79, 60, 57], [71, 61, 56], [79, 76, 66, 64, 60], [79, 76, 75, 74, 72, 70, 68, 64], [76, 75, 70, 68, 66, 64], [88, 74, 72, 71, 70, 68, 67], [79, 76, 75, 72, 70, 69, 68], [75, 72, 70, 69, 68], [88, 80, 76, 74, 73, 72, 70], [84, 82, 80, 74, 73, 71, 69], [92, 84, 82, 80, 78, 77, 76, 69], [92, 84, 82, 80, 78, 77, 69], [84, 83, 82, 80, 78, 77, 71], [88, 84, 81, 80, 74, 72], [101, 92, 87, 84, 82, 81, 80, 78], [84, 83, 80, 73], [101, 90, 88, 87, 86, 85, 83, 81], [98, 92, 86, 84, 82, 78], [100, 92, 90, 87, 86, 76], [101, 100, 98, 91, 89, 87, 86, 85, 82], [101, 100, 92, 91, 90, 85, 77], [90, 85, 83, 77], [100, 99, 98, 95, 90, 89, 86, 85], [101, 96, 91, 85, 81], [99, 98, 97, 95, 89, 86], [100, 99, 96, 91, 89, 85], [101, 98, 95, 86, 85], [98, 97, 95, 89, 86], [99, 98, 97, 95, 93], [99, 95, 94, 90], [100, 96, 93, 89], [95, 94, 90], [97, 94, 93], [96, 93], [95, 94], [96, 94], [94], [93], [93], [93], [102], [102], [102], [102], [102], [102], [102], [102], [102], []]
letting durations = [[0], [6, 8, 9], [1, 8, 8], [1, 5, 10], [3, 6, 7], [1, 1, 7], [2, 8, 10], [3, 8, 9], [8, 9, 9], [2, 4, 10], [1, 3, 8], [1, 7, 10], [1, 2, 4], [5, 6, 8], [7, 7, 7], [3, 7, 10], [7, 8, 9], [2, 4, 5], [2, 4, 7], [3, 4, 8], [1, 2, 8], [1, 5, 10], [2, 9, 10], [4, 5, 6], [1, 7, 8], [4, 7, 8], [3, 5, 5], [2, 3, 4], [2, 5, 5], [1, 8, 9], [1, 4, 7], [5, 5, 8], [1, 7, 9], [3, 5, 9], [2, 3, 9], [3, 5, 9], [1, 4, 9], [1, 5, 9], [2, 6, 10], [2, 6, 10], [4, 6, 7], [2, 4, 5], [2, 7, 10], [5, 8, 9], [1, 5, 7], [1, 4, 4], [2, 2, 6], [3, 3, 7], [1, 3, 3], [1, 6, 7], [1, 1, 4], [1, 1, 3], [3, 8, 9], [7, 8, 10], [2, 4, 6], [1, 8, 8], [4, 6, 10], [3, 6, 8], [2, 3, 8], [2, 9, 10], [2, 3, 8], [3, 4, 7], [3, 6, 8], [1, 5, 10], [4, 4, 9], [4, 5, 6], [3, 4, 8], [2, 3, 10], [6, 7, 7], [6, 6, 7], [1, 6, 8], [1, 5, 6], [1, 2, 5], [1, 4, 10], [3, 8, 9], [2, 4, 6], [5, 7, 8], [3, 4, 6], [3, 7, 9], [3, 5, 8], [4, 5, 8], [3, 4, 6], [2, 5, 9], [3, 5, 8], [4, 5, 9], [3, 3, 4], [4, 7, 10], [1, 2, 8], [5, 5, 6], [2, 6, 10], [5, 7, 10], [1, 4, 5], [3, 9, 10], [9, 9, 10], [1, 6, 7], [4, 9, 10], [1, 7, 8], [8, 8, 9], [6, 8, 9], [2, 3, 10], [6, 7, 8], [0]]
letting resourceUsage = [[[0, 0, 0, 0]], [[0, 4, 0, 2], [0, 4, 5, 0], [0, 4, 4, 0]], [[0, 3, 0, 4], [0, 1, 4, 0], [0, 1, 0, 4]], [[0, 3, 0, 6], [0, 3, 0, 5], [1, 0, 0, 4]], [[0, 3, 0, 5], [4, 0, 4, 0], [0, 3, 0, 4]], [[4, 0, 0, 4], [0, 3, 0, 3], [3, 0, 0, 2]], [[0, 5, 4, 0], [0, 3, 0, 2], [0, 2, 2, 0]], [[0, 5, 5, 0], [0, 4, 4, 0], [2, 0, 4, 0]], [[3, 0, 8, 0], [0, 2, 5, 0], [3, 0, 4, 0]], [[0, 4, 0, 5], [3, 0, 8, 0], [1, 0, 0, 2]], [[4, 0, 6, 0], [3, 0, 0, 5], [3, 0, 1, 0]], [[0, 4, 8, 0], [4, 0, 5, 0], [4, 0, 4, 0]], [[2, 0, 7, 0], [2, 0, 0, 2], [2, 0, 0, 1]], [[2, 0, 0, 8], [2, 0, 0, 5], [0, 3, 0, 4]], [[0, 4, 10, 0], [0, 3, 0, 4], [2, 0, 8, 0]], [[5, 0, 0, 8], [2, 0, 0, 5], [2, 0, 0, 4]], [[4, 0, 6, 0], [0, 2, 5, 0], [0, 2, 0, 8]], [[0, 4, 7, 0], [0, 2, 4, 0], [0, 2, 2, 0]], [[5, 0, 0, 8], [3, 0, 0, 4], [0, 1, 8, 0]], [[4, 0, 0, 7], [3, 0, 4, 0], [3, 0, 3, 0]], [[4, 0, 0, 7], [0, 3, 0, 6], [3, 0, 0, 6]], [[0, 1, 3, 0], [4, 0, 2, 0], [0, 1, 2, 0]], [[3, 0, 9, 0], [0, 4, 0, 4], [0, 4, 0, 3]], [[0, 2, 3, 0], [0, 1, 3, 0], [0, 1, 2, 0]], [[0, 2, 6, 0], [0, 2, 5, 0], [0, 2, 4, 0]], [[0, 5, 0, 4], [2, 0, 0, 4], [0, 2, 0, 4]], [[2, 0, 0, 10], [2, 0, 0, 9], [0, 3, 0, 10]], [[0, 1, 9, 0], [3, 0, 0, 5], [0, 1, 0, 1]], [[5, 0, 6, 0], [0, 4, 5, 0], [4, 0, 0, 4]], [[0, 5, 0, 7], [2, 0, 8, 0], [2, 0, 0, 1]], [[4, 0, 0, 8], [0, 2, 2, 0], [4, 0, 0, 6]], [[0, 5, 6, 0], [1, 0, 0, 6], [1, 0, 3, 0]], [[3, 0, 0, 2], [0, 1, 3, 0], [3, 0, 0, 1]], [[3, 0, 10, 0], [3, 0, 0, 5], [3, 0, 0, 4]], [[0, 4, 10, 0], [0, 3, 8, 0], [2, 0, 0, 1]], [[5, 0, 0, 9], [0, 1, 5, 0], [4, 0, 2, 0]], [[5, 0, 0, 6], [4, 0, 0, 3], [3, 0, 0, 1]], [[4, 0, 0, 9], [4, 0, 0, 6], [0, 1, 1, 0]], [[0, 4, 6, 0], [0, 2, 5, 0], [4, 0, 4, 0]], [[0, 1, 4, 0], [4, 0, 0, 6], [0, 1, 3, 0]], [[0, 3, 0, 9], [0, 3, 0, 4], [0, 2, 0, 3]], [[0, 2, 0, 7], [1, 0, 3, 0], [1, 0, 0, 2]], [[0, 3, 0, 6], [1, 0, 6, 0], [1, 0, 0, 3]], [[5, 0, 0, 2], [3, 0, 6, 0], [3, 0, 4, 0]], [[2, 0, 0, 5], [1, 0, 7, 0], [1, 0, 0, 1]], [[0, 3, 0, 6], [0, 3, 4, 0], [1, 0, 0, 5]], [[5, 0, 7, 0], [0, 3, 0, 3], [0, 3, 4, 0]], [[4, 0, 7, 0], [0, 2, 0, 1], [0, 2, 1, 0]], [[0, 2, 9, 0], [0, 2, 0, 5], [0, 2, 5, 0]], [[0, 5, 0, 8], [0, 4, 3, 0], [2, 0, 2, 0]], [[0, 3, 0, 9], [1, 0, 2, 0], [1, 0, 1, 0]], [[1, 0, 0, 9], [1, 0, 4, 0], [1, 0, 0, 3]], [[2, 0, 7, 0], [1, 0, 6, 0], [1, 0, 0, 1]], [[0, 4, 10, 0], [0, 4, 0, 3], [1, 0, 0, 1]], [[0, 5, 7, 0], [0, 3, 6, 0], [4, 0, 6, 0]], [[5, 0, 0, 10], [0, 2, 5, 0], [0, 1, 0, 10]], [[2, 0, 6, 0], [0, 3, 4, 0], [0, 1, 3, 0]], [[0, 3, 0, 9], [1, 0, 0, 6], [0, 3, 0, 4]], [[0, 4, 2, 0], [0, 3, 2, 0], [0, 3, 1, 0]], [[0, 4, 0, 7], [0, 4, 2, 0], [0, 4, 1, 0]], [[0, 2, 2, 0], [0, 2, 1, 0], [2, 0, 1, 0]], [[4, 0, 0, 7], [0, 2, 9, 0], [2, 0, 0, 3]], [[4, 0, 0, 6], [0, 1, 0, 5], [0, 1, 5, 0]], [[0, 4, 0, 3], [2, 0, 7, 0], [0, 3, 0, 2]], [[0, 5, 5, 0], [2, 0, 4, 0], [0, 2, 2, 0]], [[5, 0, 0, 4], [0, 3, 0, 4], [4, 0, 0, 3]], [[0, 4, 0, 7], [0, 2, 6, 0], [0, 1, 3, 0]], [[5, 0, 0, 7], [0, 2, 0, 6], [0, 2, 0, 5]], [[4, 0, 0, 5], [4, 0, 9, 0], [0, 3, 8, 0]], [[5, 0, 8, 0], [4, 0, 0, 7], [0, 3, 3, 0]], [[3, 0, 0, 8], [0, 4, 0, 6], [1, 0, 0, 3]], [[0, 5, 4, 0], [2, 0, 3, 0], [0, 4, 3, 0]], [[3, 0, 0, 9], [3, 0, 0, 5], [3, 0, 7, 0]], [[5, 0, 6, 0], [3, 0, 5, 0], [3, 0, 3, 0]], [[4, 0, 8, 0], [0, 2, 0, 9], [3, 0, 4, 0]], [[0, 3, 0, 10], [3, 0, 6, 0], [0, 3, 0, 8]], [[3, 0, 0, 5], [0, 5, 0, 4], [0, 5, 0, 2]], [[0, 5, 0, 8], [0, 4, 7, 0], [2, 0, 0, 4]], [[0, 3, 0, 9], [3, 0, 0, 6], [0, 2, 0, 6]], [[0, 1, 0, 4], [2, 0, 0, 3], [0, 1, 0, 3]], [[1, 0, 9, 0], [0, 3, 6, 0], [0, 3, 0, 2]], [[4, 0, 0, 3], [4, 0, 0, 2], [0, 2, 5, 0]], [[0, 2, 0, 8], [0, 1, 0, 7], [2, 0, 0, 3]], [[0, 5, 4, 0], [1, 0, 3, 0], [0, 4, 3, 0]], [[0, 4, 8, 0], [4, 0, 0, 8], [4, 0, 5, 0]], [[0, 3, 0, 7], [1, 0, 0, 4], [0, 3, 2, 0]], [[0, 5, 0, 6], [1, 0, 7, 0], [0, 4, 0, 5]], [[2, 0, 0, 2], [2, 0, 0, 1], [0, 2, 1, 0]], [[2, 0, 0, 2], [2, 0, 3, 0], [2, 0, 1, 0]], [[0, 1, 0, 2], [0, 1, 0, 1], [0, 1, 5, 0]], [[0, 4, 7, 0], [2, 0, 4, 0], [0, 3, 1, 0]], [[0, 4, 0, 5], [0, 2, 0, 3], [0, 1, 8, 0]], [[2, 0, 0, 7], [0, 2, 0, 4], [1, 0, 0, 2]], [[0, 4, 4, 0], [0, 3, 0, 2], [0, 2, 0, 2]], [[0, 4, 10, 0], [0, 4, 4, 0], [0, 3, 0, 4]], [[3, 0, 9, 0], [2, 0, 0, 2], [1, 0, 0, 2]], [[0, 3, 3, 0], [0, 2, 0, 2], [0, 2, 1, 0]], [[3, 0, 0, 7], [0, 3, 4, 0], [0, 2, 0, 7]], [[0, 4, 0, 6], [4, 0, 4, 0], [0, 3, 1, 0]], [[5, 0, 9, 0], [0, 1, 7, 0], [0, 1, 4, 0]], [[0, 4, 4, 0], [0, 2, 0, 3], [0, 2, 0, 2]], [[0, 0, 0, 0]]]
